VER
3

OBJSENSE
MAX

PSDVAR
66
20
20
16
16
16
16
16
16
16
16
16
16
16
16
16
16
16
16
16
16
16
16
16
16
16
16
16
16
16
16
16
16
16
16
16
16
16
16
16
16
16
16
16
16
16
16
16
16
16
16
16
16
16
16
16
16
16
16
16
16
16
16
16
16
16
16

VAR
3 2
F 2
L+ 1

CON
1 1
L= 1

OBJACOORD
2
1 1e+0
2 -1e+0

ACOORD
1
0 0 1e+0

BCOORD
1
0 -1e+0

